(set-logic ALL)
(set-option :produce-models true)
(declare-sort BoundSet 0)
(declare-sort UnboundSet 0)
(set-option :finite-model-find true)
(declare-fun IsMale (BoundSet) Bool)
(declare-fun IsWearingSunglasses (BoundSet) Bool)
(declare-fun IsPokingAt (BoundSet) Bool)
(declare-fun IsHoldingPole (BoundSet) Bool)
(declare-fun IsPoking (BoundSet) Bool)
(assert (not (=> (and (exists ((c BoundSet)) (exists ((a BoundSet)) (exists ((d BoundSet)) (exists ((b BoundSet)) (and (IsMale a) (and (IsWearingSunglasses b) (and (IsPokingAt c) (IsHoldingPole d)))))))) (forall ((h BoundSet)) (forall ((g BoundSet)) (=> (IsPokingAt g) (IsPoking h))))) (exists ((f BoundSet)) (not (IsPoking f))))))
(check-sat)
(get-model)